p cnf 7230 16
-2588 -3102 -3105 0
-3103 3105 0
3106 3107 0
2432 -3107 0
-2432 -3106 0
3102 3103 0
3100 3101 0
2428 -3101 0
-2428 -3100 0
2588 -3103 0
3104 3105 0
2430 -3105 0
-2430 -3104 0
-2434 -2564 3109 0
2564 -3109 0
2434 -3109 0
